(set-logic NRA)
(declare-fun a () Real)
(declare-fun Y62 () Real)
(assert (exists ((y Real)) (exists ((x Real)) (exists ((t Real)) (and (=  (+ (+ (+ 48 (* a (* a (+ 47520 (* a (* a 11761200)))))) (* x (* x (+ (+ (- 24) (* a (+ 48 (* a (+ (- 7248) (* a (+ (- 23760) (* a 59400)))))))) (* x (* x (+ 3 (* a (+ (- 12) (* a (+ 42 (* a (+ (- 60) (* a 75)))))))))))))) (* y (+ (+ (* a (* a (+ (- 9600) (* a (* a (- 4752000)))))) (* x (+ (* a (+ 192 (* a (+ 38016 (* a (- 95040)))))) (* x (+ (* a (* a (+ 1440 (* a (+ 4800 (* a (- 12000))))))) (* x (* a (+ (- 48) (* a (+ 160 (* a (- 240)))))))))))) (* y (+ (+ (+ (- 96) (* a (* a (+ 28992 (* a (* a 717600)))))) (* x (+ (* a (* a (+ (- 7680) (* a 19200)))) (* x (+ 24 (* a (+ (- 48) (* a (+ 240 (* a (+ (- 240) (* a 600)))))))))))) (* y (+ (+ (* a (* a (+ (- 5760) (* a (* a (- 48000)))))) (* x (* a (+ (- 192) (* a (+ 384 (* a (- 960)))))))) (* y (+ 48 (* a (* a (+ 288 (* a (* a 1200)))))))))))))) 0) (=  (+ (+ (* x (+ (+ 4 (* a (+ (- 36) (* a (+ 536 (* a (+ 5640 (* a (+ (- 49500) (* a 49500)))))))))) (* x (* x (+ (- 1) (* a (+ 9 (* a (+ (- 34) (* a (+ 90 (* a (+ (- 125) (* a 125)))))))))))))) (* y (+ (+ (+ (- 16) (* a (* a (+ (- 14176) (* a (+ 63360 (* a (- 118800)))))))) (* x (+ (* a (* a (+ (- 80) (* a (+ (- 1200) (* a (+ 10000 (* a (- 10000))))))))) (* x (+ 4 (* a (* a (+ (- 56) (* a (+ 160 (* a (- 300)))))))))))) (* y (+ (+ (* a (* a (+ 2880 (* a (+ (- 12800) (* a 24000)))))) (* x (+ (- 4) (* a (+ 36 (* a (+ (- 136) (* a (+ 360 (* a (+ (- 500) (* a 500)))))))))))) (* y (+ 16 (* a (* a (+ (- 224) (* a (+ 640 (* a (- 1200)))))))))))))) (* t (+ (* a (+ 8 (* a (+ (- 80) (* a (+ 4160 (* a (+ (- 39600) (* a 99000))))))))) (* y (+ (* a (* a (* a (+ (- 800) (* a (+ 8000 (* a (- 20000)))))))) (* y (* a (+ (- 40) (* a (+ 80 (* a (* a (+ (- 400) (* a 1000)))))))))))))) 0) (= (* (- 1) (+ (+ (+ (* x (+ (+ (- 20) (* a (+ 80 (* a (+ (- 2280) (* a (+ (- 39600) (* a 49500)))))))) (* x (* x (+ 5 (* a (+ (- 20) (* a (+ 70 (* a (+ (- 100) (* a 125)))))))))))) (* y (+ (+ (+ 16 (* a (+ 80 (* a (+ 39600 (* a (- 118800))))))) (* x (+ (* a (* a (+ 400 (* a (+ 8000 (* a (- 10000))))))) (* x (+ (- 4) (* a (+ (- 20) (* a (+ 100 (* a (- 300))))))))))) (* y (+ (+ (* a (* a (+ (- 8000) (* a 24000)))) (* x (* a (+ (- 80) (* a (+ 280 (* a (+ (- 400) (* a 500))))))))) (* y (+ (- 16) (* a (+ (- 80) (* a (+ 400 (* a (- 1200))))))))))))) (* t (+ (* a (+ (- 40) (* a (+ 200 (* a (+ (- 19800) (* a 99000))))))) (* y (+ (+ (* a (* a (* a (+ 4000 (* a (- 20000)))))) (* x (* a (- 32)))) (* y (* a (+ 72 (* a (+ (- 40) (* a (+ (- 200) (* a 1000))))))))))))) (* Y62 (* x 20)))) 0) (= (* (- 1) (+ (+ (* x (+ (+ (- 148) (* a (+ (- 12552) (* a (+ (- 2880) (* a (+ (- 99000) (* a 148500)))))))) (* x (* x (+ 37 (* a (+ (- 62) (* a (+ 220 (* a (+ (- 250) (* a 375)))))))))))) (* y (+ (+ (+ 80 (* a (+ (- 50448) (* a (+ 71280 (* a (- 356400))))))) (* x (+ (* a (+ 2560 (* a (+ 400 (* a (+ 20000 (* a (- 30000)))))))) (* x (+ (- 20) (* a (+ (- 188) (* a (+ 180 (* a (- 900))))))))))) (* y (+ (+ (* a (+ 10240 (* a (+ (- 14400) (* a 72000))))) (* x (+ 148 (* a (+ (- 248) (* a (+ 880 (* a (+ (- 1000) (* a 1500)))))))))) (* y (+ (- 80) (* a (+ (- 752) (* a (+ 720 (* a (- 3600))))))))))))) (* t (+ (+ (+ 64 (* a (+ (- 40) (* a (+ 32280 (* a (+ (- 19800) (* a 297000)))))))) (* x (* x (- 16)))) (* y (+ (* a (* a (+ (- 6400) (* a (+ 4000 (* a (- 60000))))))) (* y (+ (- 64) (* a (+ 200 (* a (+ 200 (* a (+ (- 200) (* a 3000))))))))))))))) 0) (= (* (- 1) (+ (+ (+ (+ 4 (* a (* a 1980))) (* x (* x (+ (- 1) (* a (* a 5)))))) (* y (+ (* a (* a (- 400))) (* y (+ (- 4) (* a (* a 20))))))) (* t (+ (* x (* a (+ 2 (* a (- 10))))) (* y (* a 8)))))) 0) (=  (+ (+ (+ 396 (* x x)) (* y (+ (- 80) (* y 4)))) (* t (+ (* x (- 2)) t))) 0) (>  t 0) (>  a 0))))))
(apply qe)
